data/lp_files/q3/44_1.lp
\ Model foo
\ LP format - for model browsing. Use MPS format to capture full model detail.
Minimize
  z
Subject To
 allocateEach[1]: x[1,1] + x[2,1] + x[3,1] = 1
 allocateEach[2]: x[1,2] + x[2,2] + x[3,2] = 1
 allocateEach[3]: x[1,3] + x[2,3] + x[3,3] = 1
 allocateEach[4]: x[1,4] + x[2,4] + x[3,4] = 1
 allocateAllCash: cashProportion[1] + cashProportion[2] + cashProportion[3]
   = 1
 findWorstP[1,2]: z + 0.032274722437387 cashProportion[1]
   - 0.032274722437387 cashProportion[2] + 0.2246643428866512 x[1,1]
   + 0.2236315517686548 x[1,2] + 0.2972179189258973 x[1,3]
   + 0.2222114639814098 x[1,4] - 0.2246643428866512 x[2,1]
   - 0.2236315517686548 x[2,2] - 0.2972179189258973 x[2,3]
   - 0.2222114639814098 x[2,4] >= 0
 findWorstP[1,3]: z + 0.032274722437387 cashProportion[1]
   - 0.032274722437387 cashProportion[3] + 0.2246643428866512 x[1,1]
   + 0.2236315517686548 x[1,2] + 0.2972179189258973 x[1,3]
   + 0.2222114639814098 x[1,4] - 0.2246643428866512 x[3,1]
   - 0.2236315517686548 x[3,2] - 0.2972179189258973 x[3,3]
   - 0.2222114639814098 x[3,4] >= 0
 findWorstP[2,1]: z - 0.0304933829359029 cashProportion[1]
   + 0.0304933829359029 cashProportion[2] - 0.2335793132890163 x[1,1]
   - 0.2919436482283345 x[1,2] - 0.2887418430200646 x[1,3]
   - 0.1552418125266817 x[1,4] + 0.2335793132890163 x[2,1]
   + 0.2919436482283345 x[2,2] + 0.2887418430200646 x[2,3]
   + 0.1552418125266817 x[2,4] >= 0
 findWorstP[2,3]: z + 0.0304933829359029 cashProportion[2]
   - 0.0304933829359029 cashProportion[3] + 0.2335793132890163 x[2,1]
   + 0.2919436482283345 x[2,2] + 0.2887418430200646 x[2,3]
   + 0.1552418125266817 x[2,4] - 0.2335793132890163 x[3,1]
   - 0.2919436482283345 x[3,2] - 0.2887418430200646 x[3,3]
   - 0.1552418125266817 x[3,4] >= 0
 findWorstP[3,1]: z - 0.03813882532418 cashProportion[1]
   + 0.03813882532418 cashProportion[3] - 0.0951563691838291 x[1,1]
   - 0.2270022883295194 x[1,2] - 0.2688405797101449 x[1,3]
   - 0.3708619374523265 x[1,4] + 0.0951563691838291 x[3,1]
   + 0.2270022883295194 x[3,2] + 0.2688405797101449 x[3,3]
   + 0.3708619374523265 x[3,4] >= 0
 findWorstP[3,2]: z - 0.03813882532418 cashProportion[2]
   + 0.03813882532418 cashProportion[3] - 0.0951563691838291 x[2,1]
   - 0.2270022883295194 x[2,2] - 0.2688405797101449 x[2,3]
   - 0.3708619374523265 x[2,4] + 0.0951563691838291 x[3,1]
   + 0.2270022883295194 x[3,2] + 0.2688405797101449 x[3,3]
   + 0.3708619374523265 x[3,4] >= 0
Bounds
 z <= 1
 -infinity <= cashProportion[1] <= 1
 -infinity <= cashProportion[2] <= 1
 -infinity <= cashProportion[3] <= 1
Binaries
 x[1,1] x[1,2] x[1,3] x[1,4] x[2,1] x[2,2] x[2,3] x[2,4] x[3,1] x[3,2]
 x[3,3] x[3,4]
End
